(set-logic QF_LIA)
(declare-fun x0 () Int)
(declare-fun x1 () Int)
(declare-fun x2 () Int)
(declare-fun x3 () Int)
(declare-fun x4 () Int)
(declare-fun x5 () Int)
(declare-fun x6 () Int)
(declare-fun x7 () Int)
(declare-fun x8 () Int)
(declare-fun x9 () Int)
(declare-fun A0 () Bool)
(declare-fun A1 () Bool)
(declare-fun A2 () Bool)
(declare-fun A3 () Bool)
(declare-fun A4 () Bool)
(declare-fun A5 () Bool)
(declare-fun A6 () Bool)
(declare-fun A7 () Bool)
(declare-fun A8 () Bool)
(declare-fun A9 () Bool)
(assert (let ((.def_0 (* (- 1) x1))) (let ((.def_1 (* (- 1) x3))) (let ((.def_2 (+ .def_1 .def_0))) (let ((.def_3 (< .def_2 (- 1)))) (let ((.def_4 (not .def_3))) (let ((.def_5 (and .def_4 A5))) (let ((.def_6 (or A1 A1))) (let ((.def_7 (not .def_6))) (let ((.def_8 (and .def_7 .def_5))) (let ((.def_9 (not .def_8))) (let ((.def_10 (not A8))) (let ((.def_11 (not A3))) (let ((.def_12 (or .def_11 .def_10))) (let ((.def_13 (not .def_12))) (let ((.def_14 (not A4))) (let ((.def_15 (* (- 1) x5))) (let ((.def_16 (+ .def_1 .def_15))) (let ((.def_17 (< .def_16 1))) (let ((.def_18 (and .def_17 .def_14))) (let ((.def_19 (not .def_18))) (let ((.def_20 (and .def_19 .def_13))) (let ((.def_21 (not .def_20))) (let ((.def_22 (and .def_21 .def_9))) (let ((.def_23 (not .def_22))) (let ((.def_24 (< .def_15 1))) (let ((.def_25 (* 1 x8))) (let ((.def_26 (* 1 x6))) (let ((.def_27 (+ .def_26 .def_25))) (let ((.def_28 (< .def_27 (- 1)))) (let ((.def_29 (not .def_28))) (let ((.def_30 (and .def_29 .def_24))) (let ((.def_31 (not .def_30))) (let ((.def_32 (not A9))) (let ((.def_33 (* 1 x0))) (let ((.def_34 (< .def_33 (- 1)))) (let ((.def_35 (not .def_34))) (let ((.def_36 (and .def_35 .def_32))) (let ((.def_37 (and .def_36 .def_31))) (let ((.def_38 (not .def_37))) (let ((.def_39 (not A6))) (let ((.def_40 (* 1 x9))) (let ((.def_41 (< .def_40 (- 1)))) (let ((.def_42 (and .def_41 .def_39))) (let ((.def_43 (< .def_26 (- 1)))) (let ((.def_44 (* 1 x7))) (let ((.def_45 (* (- 1) x2))) (let ((.def_46 (+ .def_45 .def_44))) (let ((.def_47 (< .def_46 (- 1)))) (let ((.def_48 (not .def_47))) (let ((.def_49 (and .def_48 .def_43))) (let ((.def_50 (and .def_49 .def_42))) (let ((.def_51 (or .def_50 .def_38))) (let ((.def_52 (not .def_51))) (let ((.def_53 (or .def_52 .def_23))) (let ((.def_54 (not .def_53))) (let ((.def_55 (< .def_0 1))) (let ((.def_56 (not .def_55))) (let ((.def_57 (* (- 1) x0))) (let ((.def_58 (* 1 x5))) (let ((.def_59 (+ .def_58 .def_57))) (let ((.def_60 (< .def_59 (- 1)))) (let ((.def_61 (not .def_60))) (let ((.def_62 (or .def_61 .def_56))) (let ((.def_63 (not .def_62))) (let ((.def_64 (and A4 A8))) (let ((.def_65 (and .def_64 .def_63))) (let ((.def_66 (= A3 .def_14))) (let ((.def_67 (or A5 A0))) (let ((.def_68 (not .def_67))) (let ((.def_69 (and .def_68 .def_66))) (let ((.def_70 (not .def_69))) (let ((.def_71 (or .def_70 .def_65))) (let ((.def_72 (* (- 1) x9))) (let ((.def_73 (* (- 1) x8))) (let ((.def_74 (+ .def_73 .def_72))) (let ((.def_75 (< .def_74 1))) (let ((.def_76 (* 1 x2))) (let ((.def_77 (* 1 x3))) (let ((.def_78 (+ .def_77 .def_76))) (let ((.def_79 (< .def_78 1))) (let ((.def_80 (not .def_79))) (let ((.def_81 (= .def_80 .def_75))) (let ((.def_82 (not .def_81))) (let ((.def_83 (and A3 A1))) (let ((.def_84 (not .def_83))) (let ((.def_85 (or .def_84 .def_82))) (let ((.def_86 (* (- 1) x6))) (let ((.def_87 (+ .def_86 .def_25))) (let ((.def_88 (< .def_87 1))) (let ((.def_89 (not .def_88))) (let ((.def_90 (or A2 .def_89))) (let ((.def_91 (not .def_90))) (let ((.def_92 (+ .def_86 .def_73))) (let ((.def_93 (< .def_92 1))) (let ((.def_94 (not .def_93))) (let ((.def_95 (not A7))) (let ((.def_96 (or .def_95 .def_94))) (let ((.def_97 (or .def_96 .def_91))) (let ((.def_98 (not .def_97))) (let ((.def_99 (or .def_98 .def_85))) (let ((.def_100 (not .def_99))) (let ((.def_101 (and .def_100 .def_71))) (let ((.def_102 (or .def_101 .def_54))) (let ((.def_103 (<= x9 1))) (let ((.def_104 (<= 0 x9))) (let ((.def_105 (<= x8 1))) (let ((.def_106 (<= 0 x8))) (let ((.def_107 (<= x7 1))) (let ((.def_108 (<= 0 x7))) (let ((.def_109 (<= x6 1))) (let ((.def_110 (<= 0 x6))) (let ((.def_111 (<= x5 1))) (let ((.def_112 (<= 0 x5))) (let ((.def_113 (<= x4 1))) (let ((.def_114 (<= 0 x4))) (let ((.def_115 (<= x3 1))) (let ((.def_116 (<= 0 x3))) (let ((.def_117 (<= x2 1))) (let ((.def_118 (<= 0 x2))) (let ((.def_119 (<= x1 1))) (let ((.def_120 (<= 0 x1))) (let ((.def_121 (<= x0 1))) (let ((.def_122 (<= 0 x0))) (let ((.def_123 (and .def_122 .def_121 .def_120 .def_119 .def_118 .def_117 .def_116 .def_115 .def_114 .def_113 .def_112 .def_111 .def_110 .def_109 .def_108 .def_107 .def_106 .def_105 .def_104 .def_103 .def_102))) .def_123)))))))))))))))))))))))))))))))))))))))))))))))))))))))))))))))))))))))))))))))))))))))))))))))))))))))))))))))))))))))))))))
(check-sat)
